427,660
857,648
639,672
601,446
363,88
300,25
368,305
617,207
646,358
601,446
657,423
799,388
893,194
898,833
847,919
385,702
518,726
852,461
829,429
494,501
885,6
681,106
617,207
417,42
363,88
148,322
847,919
